[1, 2, 4, 9, 4, 8, 6, 7, 7, 8, 15, 13, 13, 16, 15, 14, 14, 19, 19, 19, 21, 19, 21, 26, 27, 28, 27, 28, 29, 30, 28, 30, 38, 34, 37, 40, 35, 38, 39, 40, 41, 45, 42, 44, 43, 42, 56, 48, 49, 52, 50, 51, 51, 49, 53, 55, 58, 58, 64, 63, 62, 61, 59, 67, 64, 66, 70, 68, 68, 69, 66, 70, 71, 72, 71, 74, 77, 82, 79, 80, 88, 87, 86, 85, 84, 83, 82, 81, 89, 91, 91, 94, 93, 95, 94, 99, 93, 98, 99, 92, 101, 102, 103, 108, 106, 105, 110, 108, 109, 109, 112, 114, 117, 116, 113, 115, 111, 122, 121, 122, 121, 122, 122, 123, 122, 129, 128, 128, 129, 131, 131, 132, 133, 135, 138, 137, 145, 142, 140, 139, 141, 143, 144, 143, 144, 143, 145, 146, 147, 147, 146, 145, 148, 157, 159, 160, 162, 157, 158, 161, 159, 160, 174, 172, 166, 170, 169, 167, 168, 170, 171, 170, 171, 168, 175, 177, 178, 177, 178, 180, 179, 186, 185, 184, 185, 185, 184, 184, 193, 190, 191, 192, 191, 194, 195, 195, 198, 197, 197, 200, 201, 205, 206, 207, 204, 203, 202, 202, 205, 206, 215, 214, 213, 212, 217, 216, 220, 217, 218, 219, 219, 222, 223, 218, 225, 227, 226, 228, 230, 229, 231, 232, 231, 233, 235, 234, 238, 238, 239, 242, 241, 243, 244, 240, 246, 244, 244, 248, 250, 249, 252, 253, 253, 255, 258, 258, 257, 256, 257, 259, 260, 260, 267, 264, 254, 255, 266, 266, 265, 273, 275, 276, 274, 273, 272, 275, 277, 271, 274, 280]
[1, 3, 3, 5, 6, 6, 7, 7, 8, 15, 18, 18, 18, 18, 25, 27, 27, 27, 28, 38, 39, 39, 42, 43, 44, 47, 50, 50, 51, 52, 54, 55, 58, 60, 61, 65, 65, 69, 69, 70, 70, 71, 73, 78, 79, 85, 87, 91, 93, 93, 94, 97, 98, 98, 100, 101, 102, 104, 107, 107, 111, 113, 116, 122, 127, 127, 128, 128, 130, 130, 131, 137, 138, 143, 143, 147, 156, 156, 158, 158, 160, 165, 166, 167, 167, 170, 170, 171, 173, 174, 177, 177, 178, 179, 185, 189, 190, 190, 192, 193, 194, 194, 199, 203, 204, 204, 205, 205, 206, 213, 214, 217, 217, 222, 224, 228, 229, 230, 230, 231, 232, 233, 234, 240, 245, 247, 249, 252, 252, 253, 255, 257, 257, 258, 259, 259, 263, 273, 273, 284, 286, 286, 287, 292, 292, 293, 293, 294, 297, 297, 297, 297, 299, 299, 305, 305, 306, 306, 306, 308, 308, 312, 316, 316, 318, 318, 321, 323, 326, 327, 327, 328, 329, 329, 336, 336, 337, 339, 340, 345, 352, 355, 357, 359, 363, 367, 369, 369, 370, 372, 372, 379, 380, 381, 388, 389, 391, 400, 400, 400, 400, 400, 406, 406, 407, 407, 409, 409, 411, 413, 416, 417, 418, 419, 421, 421, 421, 426, 435, 435, 437, 437, 439, 444, 445, 449, 449, 455, 455, 456, 456, 457, 458, 462, 462, 462, 463, 463, 463, 469, 469, 470, 471, 472, 473, 473, 475, 475, 478, 479, 482, 484, 484, 485, 490, 491, 492, 493, 494, 495, 495, 496, 496, 497, 497, 498, 500, 504, 505, 507, 508, 509, 509, 510, 511, 513, 517, 518, 520, 521, 522, 522, 522, 524, 526, 527, 528, 530, 533, 533, 536, 536, 537, 538, 538, 542, 552, 552, 553, 553, 555, 559, 561, 561, 564, 564, 565, 565, 566, 570, 570, 576, 576, 576, 576, 578, 578, 585, 585, 585, 586, 594, 596, 597, 597, 599, 599, 600, 601, 602, 605, 609, 610, 613, 615, 615, 621, 621, 625, 625, 626, 629, 634, 637, 639, 639, 640, 643, 644, 645, 658, 659, 662, 665, 665, 666, 666, 668, 671, 673, 674, 680, 685, 685, 688, 688, 692, 694, 699, 700, 700, 700, 703, 703, 705, 714, 714, 717, 717, 719, 723, 724, 725, 725, 726, 727, 727, 727, 737, 743, 747, 750, 751, 754, 754, 769, 770, 775, 775, 776, 776, 780, 782, 783, 785, 786, 788, 788, 789, 791, 792, 797, 798, 800, 801, 801, 801, 803, 805, 806, 807, 810, 810, 811, 812, 812, 813, 816, 817, 817, 822, 823, 823, 829, 833, 837, 840, 840, 843, 843, 845, 849, 849, 850, 850, 851, 851, 855, 855, 855, 855, 857, 857, 864, 864, 864, 865, 866, 866, 871, 875, 879, 884, 885, 885, 887, 887, 888, 892, 897, 898, 899, 902, 902, 904, 904, 905, 906, 906, 907, 907, 913, 915, 916, 918, 918, 922, 923, 925, 927, 927, 929, 929, 930, 930, 934, 938, 941, 942, 948, 950, 957, 957, 964, 964, 965, 965, 968, 971, 973, 975, 976, 977, 978, 980, 980, 983, 983, 984, 993, 993, 994, 997, 1004, 1004, 1007, 1007, 1008, 1014, 1014, 1016, 1020, 1020, 1020, 1021, 1021, 1021, 1030, 1031, 1031, 1033, 1033, 1034, 1036, 1037, 1040, 1042, 1042, 1043, 1048, 1049, 1050, 1051, 1055, 1055, 1058, 1061, 1063, 1064, 1065, 1074, 1074, 1075, 1078, 1079, 1084, 1085, 1088, 1090, 1093, 1093, 1096, 1096, 1100, 1102, 1102, 1103, 1111, 1111, 1112, 1116, 1119, 1119, 1121, 1123, 1123, 1124, 1129, 1129, 1130, 1130, 1131, 1142, 1142, 1144, 1145, 1145, 1150, 1152, 1153, 1153, 1154, 1156, 1164, 1164, 1166, 1166, 1168, 1173, 1173, 1174, 1178, 1183, 1183, 1184, 1186, 1186, 1187, 1194, 1196, 1198, 1199, 1201, 1204, 1208, 1208, 1209, 1209, 1210, 1213, 1217, 1218, 1220, 1224, 1224, 1226, 1227, 1230, 1231, 1232, 1243, 1243, 1246, 1246, 1247, 1253, 1254, 1255, 1257, 1259, 1259, 1260, 1260, 1260, 1261, 1261, 1262, 1262, 1263, 1272, 1272, 1273, 1276, 1281, 1282, 1283, 1283, 1284, 1289, 1293, 1293, 1294, 1295, 1299, 1299, 1299, 1301, 1305, 1306, 1306, 1308, 1313, 1315, 1318, 1327, 1328, 1332, 1332, 1333, 1333, 1334, 1334, 1337, 1340, 1344, 1349, 1350, 1353, 1353, 1355, 1356, 1358, 1361, 1365, 1368, 1368, 1369, 1370, 1370, 1372, 1372, 1379, 1380, 1381, 1381, 1382, 1388, 1388, 1408, 1408, 1409, 1409, 1413, 1413, 1413, 1413, 1415, 1415, 1420, 1423, 1433, 1434, 1434, 1435, 1436, 1436, 1442, 1444, 1446, 1449, 1450, 1453, 1460, 1460, 1461, 1463, 1471, 1474, 1476, 1476, 1479, 1480, 1481, 1482, 1483, 1495, 1496, 1497, 1499, 1500, 1502, 1502, 1504, 1508, 1510, 1511, 1525, 1525, 1526, 1527, 1533, 1539, 1539, 1539, 1541, 1541, 1542, 1551, 1551, 1552, 1554, 1554, 1555, 1556, 1561, 1562, 1562, 1563, 1564, 1564, 1564, 1565, 1565, 1568, 1569, 1580, 1585, 1585, 1586, 1587, 1589, 1589, 1592, 1595, 1599, 1599, 1600, 1600, 1606, 1607, 1609, 1610, 1614, 1616, 1619, 1621, 1624, 1625, 1625, 1627, 1628, 1632, 1632, 1633, 1634, 1640, 1643, 1644, 1647, 1647, 1650, 1651, 1651, 1653, 1654, 1654, 1659, 1665, 1668, 1668, 1670, 1671, 1675, 1677, 1677, 1682, 1686, 1686, 1688, 1688, 1700, 1700, 1702, 1707, 1710, 1711, 1711, 1712, 1713, 1713, 1714, 1716, 1717, 1718, 1724, 1724, 1726, 1728, 1729, 1734, 1736, 1737, 1737, 1739, 1739, 1745, 1750, 1752, 1753, 1755, 1755, 1757, 1758, 1759, 1764, 1764, 1765, 1767, 1767, 1768, 1771, 1774, 1778, 1782, 1782, 1783, 1784, 1785, 1788, 1790, 1801, 1801, 1802, 1802, 1805, 1808, 1810, 1811, 1812, 1814, 1815, 1817, 1817, 1818, 1818, 1818, 1830, 1830, 1832, 1832, 1839, 1842, 1843, 1843, 1843, 1844, 1844, 1847, 1850, 1850, 1851, 1851, 1852, 1853, 1858, 1858, 1858, 1865, 1867, 1870, 1870, 1871, 1873, 1874, 1876, 1877, 1878, 1878, 1879, 1879, 1880, 1886, 1887, 1888, 1890, 1890, 1891, 1891, 1893, 1898, 1899, 1903, 1904, 1904, 1906, 1914, 1915, 1923, 1930, 1930, 1932, 1937, 1938, 1939, 1939, 1946, 1946, 1948, 1948, 1954, 1958, 1967, 1967, 1973, 1973, 1982, 1982, 1987, 1989, 1990, 1990, 1991, 1992, 1992, 1994, 1994, 1996, 1997, 2001, 2001, 2002, 2003, 2003, 2007, 2008, 2010, 2010, 2011, 2014, 2016, 2016, 2019, 2020, 2020, 2023, 2023, 2024, 2031, 2032, 2036, 2038, 2046, 2046, 2047, 2050, 2053, 2054, 2058, 2061, 2061, 2062, 2063, 2064, 2065, 2066, 2068, 2069, 2073, 2073, 2075, 2083, 2083, 2089, 2090, 2091, 2093, 2094, 2095, 2095, 2095, 2096, 2096, 2097, 2097, 2097, 2098, 2098, 2110, 2114, 2119, 2120, 2120, 2123, 2123, 2126, 2129, 2129, 2132, 2142, 2143, 2143, 2144, 2145, 2150, 2153, 2156, 2158, 2158, 2159, 2165, 2166, 2167, 2169, 2169, 2172, 2175, 2179, 2180, 2181, 2182, 2184, 2185, 2187, 2192, 2193, 2195, 2196, 2196, 2196, 2198, 2205, 2205, 2207, 2207, 2210, 2210, 2211, 2216, 2217, 2219, 2227, 2227, 2232, 2238, 2238, 2245, 2245, 2252, 2252, 2257, 2258, 2258, 2260, 2265, 2266, 2271, 2271, 2272, 2273, 2273, 2275, 2279, 2280, 2280, 2281, 2283, 2284, 2286, 2290, 2293, 2294, 2298, 2302, 2302, 2303, 2315, 2316, 2317, 2318, 2320, 2322, 2322, 2323, 2325, 2325, 2332, 2334, 2337, 2341, 2342, 2343, 2344, 2346, 2353, 2353, 2353, 2353, 2353, 2360, 2360, 2362, 2362, 2364, 2370, 2371, 2372, 2374, 2374, 2374, 2376, 2376, 2376, 2377, 2377, 2378, 2378, 2389, 2390, 2390, 2397, 2400, 2401, 2401, 2401, 2402, 2402, 2406, 2409, 2409, 2410, 2411, 2415, 2415, 2415, 2421, 2425, 2426, 2426, 2429, 2432, 2433, 2433, 2434, 2435, 2436, 2436, 2437, 2437, 2438, 2446, 2447, 2448, 2448, 2449, 2449, 2451, 2454, 2457, 2463, 2464, 2469, 2469, 2470, 2473, 2474, 2475, 2475, 2475, 2477, 2479, 2480, 2481, 2486, 2486, 2487, 2488, 2488, 2489, 2489, 2490, 2495, 2496, 2502, 2503, 2505, 2505, 2508, 2512, 2514, 2514, 2519, 2523, 2523, 2525, 2525, 2529, 2529, 2529, 2529, 2536, 2537, 2537, 2539, 2540, 2540, 2544, 2547, 2548, 2548, 2549, 2551, 2552, 2552, 2555, 2559, 2559, 2560, 2561, 2561, 2562, 2565, 2568, 2568, 2569, 2578, 2578, 2579, 2581, 2581, 2582, 2587, 2591, 2596, 2597, 2599, 2603, 2603, 2604, 2604, 2609, 2609, 2612, 2615, 2618, 2618, 2620, 2621, 2623, 2627, 2631, 2631, 2632, 2632, 2632, 2632, 2632, 2638, 2638, 2639, 2639, 2642, 2643, 2647, 2648, 2651, 2653, 2653, 2653, 2654, 2654, 2655, 2655, 2655, 2657, 2657, 2667, 2667, 2670, 2670, 2672, 2677, 2679, 2684, 2685, 2688, 2688, 2689, 2694, 2694, 2694, 2702, 2704, 2705, 2705, 2713, 2714, 2725, 2726, 2728, 2728, 2730, 2732, 2733, 2736, 2739, 2740, 2748, 2748, 2749, 2750, 2752, 2754, 2754, 2754, 2756, 2760, 2762, 2765, 2765, 2766, 2769, 2774, 2782, 2784, 2784, 2786]
